20J7M/DAT/20J7MNLL-10.dat
20 7
23.3696 23.3696
15.6113 15.6113
27.1632 27.1632
27.6457 27.6457
26.8489 26.8489
32.8031 32.8031
19.8886 19.8886
13.7871 13.7871
26.3307 26.3307
25.97 25.97
27.6838 27.6838
31.0162 31.0162
25.4967 25.4967
28.7319 28.7319
20.7024 20.7024
27.6625 27.6625
18.1089 18.1089
22.228 22.228
26.0524 26.0524
29.6566 29.6566
70.9654