20J7M/SOL/20J7MNLL-10.sol
solution status: optimal solution found
objective value:                     70.9653714285714
x#1#1                              0.0723687427867221 	(obj:0)
x#1#4                               0.927631257213278 	(obj:0)
x#2#4                                               1 	(obj:0)
x#3#2                               0.716663931874216 	(obj:0)
x#3#3                               0.283336068125784 	(obj:0)
x#4#3                                               1 	(obj:0)
x#5#2                                               1 	(obj:0)
x#6#7                                               1 	(obj:0)
x#7#4                                               1 	(obj:0)
x#8#4                                               1 	(obj:0)
x#9#1                              0.0638461676185686 	(obj:0)
x#9#2                               0.936153832381431 	(obj:0)
x#10#1                                              1 	(obj:0)
x#11#6                                              1 	(obj:0)
x#12#3                              0.192375505150765 	(obj:0)
x#12#6                              0.503577853785164 	(obj:0)
x#12#7                               0.30404664106407 	(obj:0)
x#13#1                              0.610691915872587 	(obj:0)
x#13#5                              0.389308084127413 	(obj:0)
x#14#7                                              1 	(obj:0)
x#15#5                                              1 	(obj:0)
x#16#6                                              1 	(obj:0)
x#17#5                                              1 	(obj:0)
x#18#5                                              1 	(obj:0)
x#19#1                                              1 	(obj:0)
x#20#3                                              1 	(obj:0)
z                                    70.9653714285714 	(obj:1)
